max: 4 x11_21 + 1 x11_22 + 1 x11_23 + 4 x11_24 + 1 x11_25 + 1 x11_31 + 4 x11_32 + 1 x11_33 + 1 x11_34 + 1 x12_21 + 4 x12_22 + 4 x12_23 + 1 x12_24 + 1 x12_25 + 4 x12_31 + 1 x12_32 + 1 x12_33 + 1 x12_34 + 1 x13_21 + 1 x13_22 + 1 x13_23 + 1 x13_24 + 4 x13_25 + 1 x13_31 + 1 x13_32 + 4 x13_33 + 1 x13_34 + 1 x14_21 + 1 x14_22 + 1 x14_23 + 1 x14_24 + 1 x14_25 + 1 x14_31 + 1 x14_32 + 1 x14_33 + 4 x14_34 + 1 x21_31 + 4 x21_32 + 1 x21_33 + 1 x21_34 + 4 x22_31 + 1 x22_32 + 1 x22_33 + 1 x22_34 + 4 x23_31 + 1 x23_32 + 1 x23_33 + 1 x23_34 + 1 x24_31 + 4 x24_32 + 1 x24_33 + 1 x24_34 + 1 x25_31 + 1 x25_32 + 4 x25_33 + 1 x25_34;
x11_21 + x11_22 <= 1;
x11_21 + x11_23 <= 1;
x11_21 + x11_24 <= 1;
x11_21 + x11_25 <= 1;
x11_22 + x11_23 <= 1;
x11_22 + x11_24 <= 1;
x11_22 + x11_25 <= 1;
x11_23 + x11_24 <= 1;
x11_23 + x11_25 <= 1;
x11_24 + x11_25 <= 1;
x12_21 + x12_22 <= 1;
x12_21 + x12_23 <= 1;
x12_21 + x12_24 <= 1;
x12_21 + x12_25 <= 1;
x12_22 + x12_23 <= 1;
x12_22 + x12_24 <= 1;
x12_22 + x12_25 <= 1;
x12_23 + x12_24 <= 1;
x12_23 + x12_25 <= 1;
x12_24 + x12_25 <= 1;
x13_21 + x13_22 <= 1;
x13_21 + x13_23 <= 1;
x13_21 + x13_24 <= 1;
x13_21 + x13_25 <= 1;
x13_22 + x13_23 <= 1;
x13_22 + x13_24 <= 1;
x13_22 + x13_25 <= 1;
x13_23 + x13_24 <= 1;
x13_23 + x13_25 <= 1;
x13_24 + x13_25 <= 1;
x14_21 + x14_22 <= 1;
x14_21 + x14_23 <= 1;
x14_21 + x14_24 <= 1;
x14_21 + x14_25 <= 1;
x14_22 + x14_23 <= 1;
x14_22 + x14_24 <= 1;
x14_22 + x14_25 <= 1;
x14_23 + x14_24 <= 1;
x14_23 + x14_25 <= 1;
x14_24 + x14_25 <= 1;
x11_21 + x12_21 <= 1;
x11_21 + x13_21 <= 1;
x11_21 + x14_21 <= 1;
x12_21 + x13_21 <= 1;
x12_21 + x14_21 <= 1;
x13_21 + x14_21 <= 1;
x11_22 + x12_22 <= 1;
x11_22 + x13_22 <= 1;
x11_22 + x14_22 <= 1;
x12_22 + x13_22 <= 1;
x12_22 + x14_22 <= 1;
x13_22 + x14_22 <= 1;
x11_23 + x12_23 <= 1;
x11_23 + x13_23 <= 1;
x11_23 + x14_23 <= 1;
x12_23 + x13_23 <= 1;
x12_23 + x14_23 <= 1;
x13_23 + x14_23 <= 1;
x11_24 + x12_24 <= 1;
x11_24 + x13_24 <= 1;
x11_24 + x14_24 <= 1;
x12_24 + x13_24 <= 1;
x12_24 + x14_24 <= 1;
x13_24 + x14_24 <= 1;
x11_25 + x12_25 <= 1;
x11_25 + x13_25 <= 1;
x11_25 + x14_25 <= 1;
x12_25 + x13_25 <= 1;
x12_25 + x14_25 <= 1;
x13_25 + x14_25 <= 1;
x11_22 + x12_21 <= 1;
x11_23 + x12_21 <= 1;
x11_24 + x12_21 <= 1;
x11_25 + x12_21 <= 1;
x11_23 + x12_22 <= 1;
x11_24 + x12_22 <= 1;
x11_25 + x12_22 <= 1;
x11_24 + x12_23 <= 1;
x11_25 + x12_23 <= 1;
x11_25 + x12_24 <= 1;
x11_22 + x13_21 <= 1;
x11_23 + x13_21 <= 1;
x11_24 + x13_21 <= 1;
x11_25 + x13_21 <= 1;
x11_23 + x13_22 <= 1;
x11_24 + x13_22 <= 1;
x11_25 + x13_22 <= 1;
x11_24 + x13_23 <= 1;
x11_25 + x13_23 <= 1;
x11_25 + x13_24 <= 1;
x11_22 + x14_21 <= 1;
x11_23 + x14_21 <= 1;
x11_24 + x14_21 <= 1;
x11_25 + x14_21 <= 1;
x11_23 + x14_22 <= 1;
x11_24 + x14_22 <= 1;
x11_25 + x14_22 <= 1;
x11_24 + x14_23 <= 1;
x11_25 + x14_23 <= 1;
x11_25 + x14_24 <= 1;
x12_22 + x13_21 <= 1;
x12_23 + x13_21 <= 1;
x12_24 + x13_21 <= 1;
x12_25 + x13_21 <= 1;
x12_23 + x13_22 <= 1;
x12_24 + x13_22 <= 1;
x12_25 + x13_22 <= 1;
x12_24 + x13_23 <= 1;
x12_25 + x13_23 <= 1;
x12_25 + x13_24 <= 1;
x12_22 + x14_21 <= 1;
x12_23 + x14_21 <= 1;
x12_24 + x14_21 <= 1;
x12_25 + x14_21 <= 1;
x12_23 + x14_22 <= 1;
x12_24 + x14_22 <= 1;
x12_25 + x14_22 <= 1;
x12_24 + x14_23 <= 1;
x12_25 + x14_23 <= 1;
x12_25 + x14_24 <= 1;
x13_22 + x14_21 <= 1;
x13_23 + x14_21 <= 1;
x13_24 + x14_21 <= 1;
x13_25 + x14_21 <= 1;
x13_23 + x14_22 <= 1;
x13_24 + x14_22 <= 1;
x13_25 + x14_22 <= 1;
x13_24 + x14_23 <= 1;
x13_25 + x14_23 <= 1;
x13_25 + x14_24 <= 1;
x11_31 + x11_32 <= 1;
x11_31 + x11_33 <= 1;
x11_31 + x11_34 <= 1;
x11_32 + x11_33 <= 1;
x11_32 + x11_34 <= 1;
x11_33 + x11_34 <= 1;
x12_31 + x12_32 <= 1;
x12_31 + x12_33 <= 1;
x12_31 + x12_34 <= 1;
x12_32 + x12_33 <= 1;
x12_32 + x12_34 <= 1;
x12_33 + x12_34 <= 1;
x13_31 + x13_32 <= 1;
x13_31 + x13_33 <= 1;
x13_31 + x13_34 <= 1;
x13_32 + x13_33 <= 1;
x13_32 + x13_34 <= 1;
x13_33 + x13_34 <= 1;
x14_31 + x14_32 <= 1;
x14_31 + x14_33 <= 1;
x14_31 + x14_34 <= 1;
x14_32 + x14_33 <= 1;
x14_32 + x14_34 <= 1;
x14_33 + x14_34 <= 1;
x11_31 + x12_31 <= 1;
x11_31 + x13_31 <= 1;
x11_31 + x14_31 <= 1;
x12_31 + x13_31 <= 1;
x12_31 + x14_31 <= 1;
x13_31 + x14_31 <= 1;
x11_32 + x12_32 <= 1;
x11_32 + x13_32 <= 1;
x11_32 + x14_32 <= 1;
x12_32 + x13_32 <= 1;
x12_32 + x14_32 <= 1;
x13_32 + x14_32 <= 1;
x11_33 + x12_33 <= 1;
x11_33 + x13_33 <= 1;
x11_33 + x14_33 <= 1;
x12_33 + x13_33 <= 1;
x12_33 + x14_33 <= 1;
x13_33 + x14_33 <= 1;
x11_34 + x12_34 <= 1;
x11_34 + x13_34 <= 1;
x11_34 + x14_34 <= 1;
x12_34 + x13_34 <= 1;
x12_34 + x14_34 <= 1;
x13_34 + x14_34 <= 1;
x11_32 + x12_31 <= 1;
x11_33 + x12_31 <= 1;
x11_34 + x12_31 <= 1;
x11_33 + x12_32 <= 1;
x11_34 + x12_32 <= 1;
x11_34 + x12_33 <= 1;
x11_32 + x13_31 <= 1;
x11_33 + x13_31 <= 1;
x11_34 + x13_31 <= 1;
x11_33 + x13_32 <= 1;
x11_34 + x13_32 <= 1;
x11_34 + x13_33 <= 1;
x11_32 + x14_31 <= 1;
x11_33 + x14_31 <= 1;
x11_34 + x14_31 <= 1;
x11_33 + x14_32 <= 1;
x11_34 + x14_32 <= 1;
x11_34 + x14_33 <= 1;
x12_32 + x13_31 <= 1;
x12_33 + x13_31 <= 1;
x12_34 + x13_31 <= 1;
x12_33 + x13_32 <= 1;
x12_34 + x13_32 <= 1;
x12_34 + x13_33 <= 1;
x12_32 + x14_31 <= 1;
x12_33 + x14_31 <= 1;
x12_34 + x14_31 <= 1;
x12_33 + x14_32 <= 1;
x12_34 + x14_32 <= 1;
x12_34 + x14_33 <= 1;
x13_32 + x14_31 <= 1;
x13_33 + x14_31 <= 1;
x13_34 + x14_31 <= 1;
x13_33 + x14_32 <= 1;
x13_34 + x14_32 <= 1;
x13_34 + x14_33 <= 1;
x21_31 + x21_32 <= 1;
x21_31 + x21_33 <= 1;
x21_31 + x21_34 <= 1;
x21_32 + x21_33 <= 1;
x21_32 + x21_34 <= 1;
x21_33 + x21_34 <= 1;
x22_31 + x22_32 <= 1;
x22_31 + x22_33 <= 1;
x22_31 + x22_34 <= 1;
x22_32 + x22_33 <= 1;
x22_32 + x22_34 <= 1;
x22_33 + x22_34 <= 1;
x23_31 + x23_32 <= 1;
x23_31 + x23_33 <= 1;
x23_31 + x23_34 <= 1;
x23_32 + x23_33 <= 1;
x23_32 + x23_34 <= 1;
x23_33 + x23_34 <= 1;
x24_31 + x24_32 <= 1;
x24_31 + x24_33 <= 1;
x24_31 + x24_34 <= 1;
x24_32 + x24_33 <= 1;
x24_32 + x24_34 <= 1;
x24_33 + x24_34 <= 1;
x25_31 + x25_32 <= 1;
x25_31 + x25_33 <= 1;
x25_31 + x25_34 <= 1;
x25_32 + x25_33 <= 1;
x25_32 + x25_34 <= 1;
x25_33 + x25_34 <= 1;
x21_31 + x22_31 <= 1;
x21_31 + x23_31 <= 1;
x21_31 + x24_31 <= 1;
x21_31 + x25_31 <= 1;
x22_31 + x23_31 <= 1;
x22_31 + x24_31 <= 1;
x22_31 + x25_31 <= 1;
x23_31 + x24_31 <= 1;
x23_31 + x25_31 <= 1;
x24_31 + x25_31 <= 1;
x21_32 + x22_32 <= 1;
x21_32 + x23_32 <= 1;
x21_32 + x24_32 <= 1;
x21_32 + x25_32 <= 1;
x22_32 + x23_32 <= 1;
x22_32 + x24_32 <= 1;
x22_32 + x25_32 <= 1;
x23_32 + x24_32 <= 1;
x23_32 + x25_32 <= 1;
x24_32 + x25_32 <= 1;
x21_33 + x22_33 <= 1;
x21_33 + x23_33 <= 1;
x21_33 + x24_33 <= 1;
x21_33 + x25_33 <= 1;
x22_33 + x23_33 <= 1;
x22_33 + x24_33 <= 1;
x22_33 + x25_33 <= 1;
x23_33 + x24_33 <= 1;
x23_33 + x25_33 <= 1;
x24_33 + x25_33 <= 1;
x21_34 + x22_34 <= 1;
x21_34 + x23_34 <= 1;
x21_34 + x24_34 <= 1;
x21_34 + x25_34 <= 1;
x22_34 + x23_34 <= 1;
x22_34 + x24_34 <= 1;
x22_34 + x25_34 <= 1;
x23_34 + x24_34 <= 1;
x23_34 + x25_34 <= 1;
x24_34 + x25_34 <= 1;
x21_32 + x22_31 <= 1;
x21_33 + x22_31 <= 1;
x21_34 + x22_31 <= 1;
x21_33 + x22_32 <= 1;
x21_34 + x22_32 <= 1;
x21_34 + x22_33 <= 1;
x21_32 + x23_31 <= 1;
x21_33 + x23_31 <= 1;
x21_34 + x23_31 <= 1;
x21_33 + x23_32 <= 1;
x21_34 + x23_32 <= 1;
x21_34 + x23_33 <= 1;
x21_32 + x24_31 <= 1;
x21_33 + x24_31 <= 1;
x21_34 + x24_31 <= 1;
x21_33 + x24_32 <= 1;
x21_34 + x24_32 <= 1;
x21_34 + x24_33 <= 1;
x21_32 + x25_31 <= 1;
x21_33 + x25_31 <= 1;
x21_34 + x25_31 <= 1;
x21_33 + x25_32 <= 1;
x21_34 + x25_32 <= 1;
x21_34 + x25_33 <= 1;
x22_32 + x23_31 <= 1;
x22_33 + x23_31 <= 1;
x22_34 + x23_31 <= 1;
x22_33 + x23_32 <= 1;
x22_34 + x23_32 <= 1;
x22_34 + x23_33 <= 1;
x22_32 + x24_31 <= 1;
x22_33 + x24_31 <= 1;
x22_34 + x24_31 <= 1;
x22_33 + x24_32 <= 1;
x22_34 + x24_32 <= 1;
x22_34 + x24_33 <= 1;
x22_32 + x25_31 <= 1;
x22_33 + x25_31 <= 1;
x22_34 + x25_31 <= 1;
x22_33 + x25_32 <= 1;
x22_34 + x25_32 <= 1;
x22_34 + x25_33 <= 1;
x23_32 + x24_31 <= 1;
x23_33 + x24_31 <= 1;
x23_34 + x24_31 <= 1;
x23_33 + x24_32 <= 1;
x23_34 + x24_32 <= 1;
x23_34 + x24_33 <= 1;
x23_32 + x25_31 <= 1;
x23_33 + x25_31 <= 1;
x23_34 + x25_31 <= 1;
x23_33 + x25_32 <= 1;
x23_34 + x25_32 <= 1;
x23_34 + x25_33 <= 1;
x24_32 + x25_31 <= 1;
x24_33 + x25_31 <= 1;
x24_34 + x25_31 <= 1;
x24_33 + x25_32 <= 1;
x24_34 + x25_32 <= 1;
x24_34 + x25_33 <= 1;
x11_21 + x11_31 + x21_31 <= 2;
x11_21 + x11_32 + x21_32 <= 2;
x11_21 + x11_33 + x21_33 <= 2;
x11_21 + x11_34 + x21_34 <= 2;
x11_22 + x11_31 + x22_31 <= 2;
x11_22 + x11_32 + x22_32 <= 2;
x11_22 + x11_33 + x22_33 <= 2;
x11_22 + x11_34 + x22_34 <= 2;
x11_23 + x11_31 + x23_31 <= 2;
x11_23 + x11_32 + x23_32 <= 2;
x11_23 + x11_33 + x23_33 <= 2;
x11_23 + x11_34 + x23_34 <= 2;
x11_24 + x11_31 + x24_31 <= 2;
x11_24 + x11_32 + x24_32 <= 2;
x11_24 + x11_33 + x24_33 <= 2;
x11_24 + x11_34 + x24_34 <= 2;
x11_25 + x11_31 + x25_31 <= 2;
x11_25 + x11_32 + x25_32 <= 2;
x11_25 + x11_33 + x25_33 <= 2;
x11_25 + x11_34 + x25_34 <= 2;
x12_21 + x12_31 + x21_31 <= 2;
x12_21 + x12_32 + x21_32 <= 2;
x12_21 + x12_33 + x21_33 <= 2;
x12_21 + x12_34 + x21_34 <= 2;
x12_22 + x12_31 + x22_31 <= 2;
x12_22 + x12_32 + x22_32 <= 2;
x12_22 + x12_33 + x22_33 <= 2;
x12_22 + x12_34 + x22_34 <= 2;
x12_23 + x12_31 + x23_31 <= 2;
x12_23 + x12_32 + x23_32 <= 2;
x12_23 + x12_33 + x23_33 <= 2;
x12_23 + x12_34 + x23_34 <= 2;
x12_24 + x12_31 + x24_31 <= 2;
x12_24 + x12_32 + x24_32 <= 2;
x12_24 + x12_33 + x24_33 <= 2;
x12_24 + x12_34 + x24_34 <= 2;
x12_25 + x12_31 + x25_31 <= 2;
x12_25 + x12_32 + x25_32 <= 2;
x12_25 + x12_33 + x25_33 <= 2;
x12_25 + x12_34 + x25_34 <= 2;
x13_21 + x13_31 + x21_31 <= 2;
x13_21 + x13_32 + x21_32 <= 2;
x13_21 + x13_33 + x21_33 <= 2;
x13_21 + x13_34 + x21_34 <= 2;
x13_22 + x13_31 + x22_31 <= 2;
x13_22 + x13_32 + x22_32 <= 2;
x13_22 + x13_33 + x22_33 <= 2;
x13_22 + x13_34 + x22_34 <= 2;
x13_23 + x13_31 + x23_31 <= 2;
x13_23 + x13_32 + x23_32 <= 2;
x13_23 + x13_33 + x23_33 <= 2;
x13_23 + x13_34 + x23_34 <= 2;
x13_24 + x13_31 + x24_31 <= 2;
x13_24 + x13_32 + x24_32 <= 2;
x13_24 + x13_33 + x24_33 <= 2;
x13_24 + x13_34 + x24_34 <= 2;
x13_25 + x13_31 + x25_31 <= 2;
x13_25 + x13_32 + x25_32 <= 2;
x13_25 + x13_33 + x25_33 <= 2;
x13_25 + x13_34 + x25_34 <= 2;
x14_21 + x14_31 + x21_31 <= 2;
x14_21 + x14_32 + x21_32 <= 2;
x14_21 + x14_33 + x21_33 <= 2;
x14_21 + x14_34 + x21_34 <= 2;
x14_22 + x14_31 + x22_31 <= 2;
x14_22 + x14_32 + x22_32 <= 2;
x14_22 + x14_33 + x22_33 <= 2;
x14_22 + x14_34 + x22_34 <= 2;
x14_23 + x14_31 + x23_31 <= 2;
x14_23 + x14_32 + x23_32 <= 2;
x14_23 + x14_33 + x23_33 <= 2;
x14_23 + x14_34 + x23_34 <= 2;
x14_24 + x14_31 + x24_31 <= 2;
x14_24 + x14_32 + x24_32 <= 2;
x14_24 + x14_33 + x24_33 <= 2;
x14_24 + x14_34 + x24_34 <= 2;
x14_25 + x14_31 + x25_31 <= 2;
x14_25 + x14_32 + x25_32 <= 2;
x14_25 + x14_33 + x25_33 <= 2;
x14_25 + x14_34 + x25_34 <= 2;
bin x11_21, x11_22, x11_23, x11_24, x11_25, x11_31, x11_32, x11_33, x11_34, x12_21, x12_22, x12_23, x12_24, x12_25, x12_31, x12_32, x12_33, x12_34, x13_21, x13_22, x13_23, x13_24, x13_25, x13_31, x13_32, x13_33, x13_34, x14_21, x14_22, x14_23, x14_24, x14_25, x14_31, x14_32, x14_33, x14_34, x21_31, x21_32, x21_33, x21_34, x22_31, x22_32, x22_33, x22_34, x23_31, x23_32, x23_33, x23_34, x24_31, x24_32, x24_33, x24_34, x25_31, x25_32, x25_33, x25_34;
